Memory budget  8.0  GB
Batch size  176
Model vgg16
Mode normal
Using license file /home/cc/gurobi.lic
Academic license - for non-commercial use only
Parameter LogToConsole unchanged
   Value: 1  Min: 0  Max: 1  Default: 1
Parameter LogFile unchanged
   Value:   Default: 
Changed value of parameter Threads to 48
   Prev: 0  Min: 0  Max: 1024  Default: 0
Changed value of parameter TimeLimit to 7200.0
   Prev: inf  Min: 0.0  Max: inf  Default: inf
Changed value of parameter OptimalityTol to 0.0001
   Prev: 1e-06  Min: 1e-09  Max: 0.01  Default: 1e-06
Parameter IntFeasTol unchanged
   Value: 1e-05  Min: 1e-09  Max: 0.1  Default: 1e-05
Changed value of parameter Presolve to 2
   Prev: -1  Min: -1  Max: 2  Default: -1
Changed value of parameter StartNodeLimit to 10000000
   Prev: -1  Min: -2  Max: 2000000000  Default: -1
Parameter TimeLimit unchanged
   Value: 7200.0  Min: 0.0  Max: inf  Default: inf


Restarting solve


Gurobi Optimizer version 9.0.2 build v9.0.2rc0 (linux64)
Optimize a model with 76245 rows, 41128 columns and 229818 nonzeros
Model fingerprint: 0x3cc206ed
Variable types: 9409 continuous, 31719 integer (31719 binary)
Coefficient statistics:
  Matrix range     [1e+00, 2e+06]
  Objective range  [1e+00, 1e+04]
  Bounds range     [1e+00, 7e+06]
  RHS range        [1e+00, 7e+06]
Presolve removed 50823 rows and 22072 columns
Presolve time: 0.24s
Presolved: 25422 rows, 19056 columns, 90933 nonzeros
Variable types: 0 continuous, 19056 integer (14343 binary)
Presolve removed 86 rows and 86 columns
Presolved: 25336 rows, 18970 columns, 90761 nonzeros


Root relaxation: objective 2.526388e+05, 6413 iterations, 0.40 seconds

    Nodes    |    Current Node    |     Objective Bounds      |     Work
 Expl Unexpl |  Obj  Depth IntInf | Incumbent    BestBd   Gap | It/Node Time

     0     0 252638.778    0  499          - 252638.778      -     -    1s
     0     0 252677.893    0  406          - 252677.893      -     -    1s
     0     0 252677.893    0  393          - 252677.893      -     -    2s
     0     0 252774.500    0 1046          - 252774.500      -     -    2s
     0     0 252776.136    0 1123          - 252776.136      -     -    2s
     0     0 252776.299    0 1004          - 252776.299      -     -    2s
     0     0 252776.961    0 1166          - 252776.961      -     -    2s
     0     0 252777.146    0 1378          - 252777.146      -     -    2s
     0     0 252777.252    0 1211          - 252777.252      -     -    2s
     0     0 252777.252    0 1213          - 252777.252      -     -    3s
     0     0 252777.947    0 1210          - 252777.947      -     -    3s
     0     0 252777.947    0 1183          - 252777.947      -     -    3s
     0     0 252778.000    0  120          - 252778.000      -     -    3s
     0     0 252778.000    0  167          - 252778.000      -     -    3s
     0     0 252778.000    0  140          - 252778.000      -     -    4s
     0     0 252778.000    0  140          - 252778.000      -     -    4s
     0     0 252778.000    0  100          - 252778.000      -     -    4s
     0     0 252778.000    0  144          - 252778.000      -     -    4s
     0     0 252803.385    0  137          - 252803.385      -     -    5s
     0     0 252888.000    0  136          - 252888.000      -     -    5s
     0     0 253074.630    0 2498          - 253074.630      -     -    5s
     0     0 253093.431    0 2469          - 253093.431      -     -    6s
     0     0 253093.658    0 2433          - 253093.658      -     -    6s
     0     0 253093.658    0 2429          - 253093.658      -     -    6s
     0     0 253165.158    0 2501          - 253165.158      -     -    6s
H    0     0                    270383.00000 253165.158  6.37%     -    6s
H    0     0                    261612.00000 253165.158  3.23%     -    6s
     0     0 253168.237    0 2659 261612.000 253168.237  3.23%     -    6s
     0     0 253168.237    0 2702 261612.000 253168.237  3.23%     -    6s
     0     0 253623.156    0 2432 261612.000 253623.156  3.05%     -    7s
H    0     0                    259516.00000 253623.156  2.27%     -    7s
     0     0 253670.786    0 1525 259516.000 253670.786  2.25%     -    7s
     0     0 253698.330    0 2245 259516.000 253698.330  2.24%     -    7s
     0     0 253698.354    0 2008 259516.000 253698.354  2.24%     -    7s
     0     0 253829.115    0 3236 259516.000 253829.115  2.19%     -    7s
     0     0 253863.742    0 3336 259516.000 253863.742  2.18%     -    8s
     0     0 253869.794    0 3483 259516.000 253869.794  2.18%     -    8s
     0     0 253869.941    0 3498 259516.000 253869.941  2.18%     -    8s
     0     0 253909.568    0 3114 259516.000 253909.568  2.16%     -    8s
     0     0 253923.353    0 1534 259516.000 253923.353  2.16%     -    8s
     0     0 253923.353    0 1547 259516.000 253923.353  2.16%     -    8s
     0     0 254280.169    0 2747 259516.000 254280.169  2.02%     -    9s
H    0     0                    259406.00000 254280.169  1.98%     -    9s
     0     0 254280.764    0 2400 259406.000 254280.764  1.98%     -    9s
     0     0 254280.764    0 2394 259406.000 254280.764  1.98%     -    9s
     0     0 254537.625    0 2671 259406.000 254537.625  1.88%     -    9s
H    0     0                    258977.00000 254537.625  1.71%     -    9s
     0     0 254638.552    0 3068 258977.000 254638.552  1.68%     -    9s
     0     0 254642.202    0 3285 258977.000 254642.202  1.67%     -    9s
     0     0 254643.291    0 3128 258977.000 254643.291  1.67%     -    9s
     0     0 254643.291    0 3128 258977.000 254643.291  1.67%     -    9s
     0     0 254851.317    0 2771 258977.000 254851.317  1.59%     -   10s
     0     0 254866.337    0 2636 258977.000 254866.337  1.59%     -   10s
     0     0 254869.833    0 2521 258977.000 254869.833  1.59%     -   10s
     0     0 254869.885    0 2547 258977.000 254869.885  1.59%     -   10s
     0     0 254902.689    0 3246 258977.000 254902.689  1.57%     -   10s
     0     0 254903.099    0 3021 258977.000 254903.099  1.57%     -   10s
     0     0 254909.899    0 2677 258977.000 254909.899  1.57%     -   11s
H    0     0                    258867.00000 254909.899  1.53%     -   11s
     0     0 254909.899    0 2729 258867.000 254909.899  1.53%     -   11s
     0     0 254911.002    0 2747 258867.000 254911.002  1.53%     -   11s
     0     0 254911.002    0 2747 258867.000 254911.002  1.53%     -   12s
     0     0 254911.002    0 2748 258867.000 254911.002  1.53%     -   13s
     0     0 254911.002    0 2748 258867.000 254911.002  1.53%     -   13s
H    0     0                    258612.00000 254911.002  1.43%     -   13s
     0     0 255279.778    0 1465 258612.000 255279.778  1.29%     -   15s
     0     0 255279.778    0 2962 258612.000 255279.778  1.29%     -   17s
H    0     0                    257448.00000 255279.778  0.84%     -   17s
     0     0 255485.000    0 1962 257448.000 255485.000  0.76%     -   18s
     0     0 255485.000    0 2282 257448.000 255485.000  0.76%     -   18s
     0     0 255485.000    0 2737 257448.000 255485.000  0.76%     -   19s
     0     0 255485.000    0 2507 257448.000 255485.000  0.76%     -   19s
     0     0 255691.018    0 1562 257448.000 255691.018  0.68%     -   19s
     0     0 255694.471    0 1214 257448.000 255694.471  0.68%     -   20s
     0     0 255694.471    0 1215 257448.000 255694.471  0.68%     -   20s
H    0     0                    257163.00000 255694.471  0.57%     -   20s
     0     0 255695.487    0 1705 257163.000 255695.487  0.57%     -   20s
H    0     0                    255909.00000 255695.487  0.08%     -   20s
     0     0 255695.487    0 1705 255909.000 255695.487  0.08%     -   20s
     0     0 255695.524    0 1144 255909.000 255695.524  0.08%     -   21s
     0     0 255695.524    0 1295 255909.000 255695.524  0.08%     -   25s
     0     0 255715.238    0   92 255909.000 255715.238  0.08%     -   26s
     0     0 255820.750    0 1316 255909.000 255820.750  0.03%     -   26s
H    0     0                    255828.00000 255820.750  0.00%     -   26s

Cutting planes:
  Gomory: 1
  Cover: 28
  Implied bound: 7
  Clique: 75
  MIR: 33
  StrongCG: 11
  GUB cover: 3
  Inf proof: 6
  RLT: 9

Explored 1 nodes (52160 simplex iterations) in 26.99 seconds
Thread count was 48 (of 48 available processors)

Solution count 10: 255828 255909 255909 ... 259516

Optimal solution found (tolerance 1.00e-04)
Best objective 2.558280000000e+05, best bound 2.558280000000e+05, gap 0.0000%
SOLVE TIME 27.035995953017846
autosave: 2536.137109ms avg, -1.000000s last iteration,  9263.20 MB
